*NAME:          pp08a
*ROWS:          136
*COLUMNS:       240
*INTEGER:       64
*NONZERO:	480
*BEST SOLN:     7350
*LP SOLN:       2748.3452381
*SOURCE:
*
*               Martin Savelsbergh (Georgia Institute of Technology)
*APPLICATION:
*COMMENTS:      pure 0/1 IP                      
*
*
NAME          PP08A
ROWS
 N  COST....
 E  PP0101..
 E  PP0102..
 E  PP0103..
 E  PP0104..
 E  PP0105..
 E  PP0106..
 E  PP0107..
 E  PP0108..
 E  PP0201..
 E  PP0202..
 E  PP0203..
 E  PP0204..
 E  PP0205..
 E  PP0206..
 E  PP0207..
 E  PP0208..
 E  PP0301..
 E  PP0302..
 E  PP0303..
 E  PP0304..
 E  PP0305..
 E  PP0306..
 E  PP0307..
 E  PP0308..
 E  PP0401..
 E  PP0402..
 E  PP0403..
 E  PP0404..
 E  PP0405..
 E  PP0406..
 E  PP0407..
 E  PP0408..
 E  PP0501..
 E  PP0502..
 E  PP0503..
 E  PP0504..
 E  PP0505..
 E  PP0506..
 E  PP0507..
 E  PP0508..
 E  PP0601..
 E  PP0602..
 E  PP0603..
 E  PP0604..
 E  PP0605..
 E  PP0606..
 E  PP0607..
 E  PP0608..
 E  PP0701..
 E  PP0702..
 E  PP0703..
 E  PP0704..
 E  PP0705..
 E  PP0706..
 E  PP0707..
 E  PP0708..
 E  PP0801..
 E  PP0802..
 E  PP0803..
 E  PP0804..
 E  PP0805..
 E  PP0806..
 E  PP0807..
 E  PP0808..
 L  CAP01...
 L  CAP02...
 L  CAP03...
 L  CAP04...
 L  CAP05...
 L  CAP06...
 L  CAP07...
 L  CAP08...
 L  VUBR0101
 L  VUBR0102
 L  VUBR0103
 L  VUBR0104
 L  VUBR0105
 L  VUBR0106
 L  VUBR0107
 L  VUBR0108
 L  VUBR0201
 L  VUBR0202
 L  VUBR0203
 L  VUBR0204
 L  VUBR0205
 L  VUBR0206
 L  VUBR0207
 L  VUBR0208
 L  VUBR0301
 L  VUBR0302
 L  VUBR0303
 L  VUBR0304
 L  VUBR0305
 L  VUBR0306
 L  VUBR0307
 L  VUBR0308
 L  VUBR0401
 L  VUBR0402
 L  VUBR0403
 L  VUBR0404
 L  VUBR0405
 L  VUBR0406
 L  VUBR0407
 L  VUBR0408
 L  VUBR0501
 L  VUBR0502
 L  VUBR0503
 L  VUBR0504
 L  VUBR0505
 L  VUBR0506
 L  VUBR0507
 L  VUBR0508
 L  VUBR0601
 L  VUBR0602
 L  VUBR0603
 L  VUBR0604
 L  VUBR0605
 L  VUBR0606
 L  VUBR0607
 L  VUBR0608
 L  VUBR0701
 L  VUBR0702
 L  VUBR0703
 L  VUBR0704
 L  VUBR0705
 L  VUBR0706
 L  VUBR0707
 L  VUBR0708
 L  VUBR0801
 L  VUBR0802
 L  VUBR0803
 L  VUBR0804
 L  VUBR0805
 L  VUBR0806
 L  VUBR0807
 L  VUBR0808
COLUMNS
    S0101...  COST....      1.000000   PP0102..      1.000000
    S0101...  PP0101..     -1.000000
    S0102...  COST....      1.000000   PP0103..      1.000000
    S0102...  PP0102..     -1.000000
    S0103...  COST....      1.000000   PP0104..      1.000000
    S0103...  PP0103..     -1.000000
    S0104...  COST....      1.000000   PP0105..      1.000000
    S0104...  PP0104..     -1.000000
    S0105...  COST....      1.000000   PP0106..      1.000000
    S0105...  PP0105..     -1.000000
    S0106...  COST....      1.000000   PP0107..      1.000000
    S0106...  PP0106..     -1.000000
    S0107...  COST....      1.000000   PP0108..      1.000000
    S0107...  PP0107..     -1.000000
    S0201...  COST....      1.000000   PP0202..      1.000000
    S0201...  PP0201..     -1.000000
    S0202...  COST....      1.000000   PP0203..      1.000000
    S0202...  PP0202..     -1.000000
    S0203...  COST....      1.000000   PP0204..      1.000000
    S0203...  PP0203..     -1.000000
    S0204...  COST....      1.000000   PP0205..      1.000000
    S0204...  PP0204..     -1.000000
    S0205...  COST....      1.000000   PP0206..      1.000000
    S0205...  PP0205..     -1.000000
    S0206...  COST....      1.000000   PP0207..      1.000000
    S0206...  PP0206..     -1.000000
    S0207...  COST....      1.000000   PP0208..      1.000000
    S0207...  PP0207..     -1.000000
    S0301...  COST....      1.000000   PP0302..      1.000000
    S0301...  PP0301..     -1.000000
    S0302...  COST....      1.000000   PP0303..      1.000000
    S0302...  PP0302..     -1.000000
    S0303...  COST....      1.000000   PP0304..      1.000000
    S0303...  PP0303..     -1.000000
    S0304...  COST....      1.000000   PP0305..      1.000000
    S0304...  PP0304..     -1.000000
    S0305...  COST....      1.000000   PP0306..      1.000000
    S0305...  PP0305..     -1.000000
    S0306...  COST....      1.000000   PP0307..      1.000000
    S0306...  PP0306..     -1.000000
    S0307...  COST....      1.000000   PP0308..      1.000000
    S0307...  PP0307..     -1.000000
    S0401...  COST....      1.000000   PP0402..      1.000000
    S0401...  PP0401..     -1.000000
    S0402...  COST....      1.000000   PP0403..      1.000000
    S0402...  PP0402..     -1.000000
    S0403...  COST....      1.000000   PP0404..      1.000000
    S0403...  PP0403..     -1.000000
    S0404...  COST....      1.000000   PP0405..      1.000000
    S0404...  PP0404..     -1.000000
    S0405...  COST....      1.000000   PP0406..      1.000000
    S0405...  PP0405..     -1.000000
    S0406...  COST....      1.000000   PP0407..      1.000000
    S0406...  PP0406..     -1.000000
    S0407...  COST....      1.000000   PP0408..      1.000000
    S0407...  PP0407..     -1.000000
    S0501...  COST....      1.000000   PP0502..      1.000000
    S0501...  PP0501..     -1.000000
    S0502...  COST....      1.000000   PP0503..      1.000000
    S0502...  PP0502..     -1.000000
    S0503...  COST....      1.000000   PP0504..      1.000000
    S0503...  PP0503..     -1.000000
    S0504...  COST....      1.000000   PP0505..      1.000000
    S0504...  PP0504..     -1.000000
    S0505...  COST....      1.000000   PP0506..      1.000000
    S0505...  PP0505..     -1.000000
    S0506...  COST....      1.000000   PP0507..      1.000000
    S0506...  PP0506..     -1.000000
    S0507...  COST....      1.000000   PP0508..      1.000000
    S0507...  PP0507..     -1.000000
    S0601...  COST....      1.000000   PP0602..      1.000000
    S0601...  PP0601..     -1.000000
    S0602...  COST....      1.000000   PP0603..      1.000000
    S0602...  PP0602..     -1.000000
    S0603...  COST....      1.000000   PP0604..      1.000000
    S0603...  PP0603..     -1.000000
    S0604...  COST....      1.000000   PP0605..      1.000000
    S0604...  PP0604..     -1.000000
    S0605...  COST....      1.000000   PP0606..      1.000000
    S0605...  PP0605..     -1.000000
    S0606...  COST....      1.000000   PP0607..      1.000000
    S0606...  PP0606..     -1.000000
    S0607...  COST....      1.000000   PP0608..      1.000000
    S0607...  PP0607..     -1.000000
    S0701...  COST....      1.000000   PP0702..      1.000000
    S0701...  PP0701..     -1.000000
    S0702...  COST....      1.000000   PP0703..      1.000000
    S0702...  PP0702..     -1.000000
    S0703...  COST....      1.000000   PP0704..      1.000000
    S0703...  PP0703..     -1.000000
    S0704...  COST....      1.000000   PP0705..      1.000000
    S0704...  PP0704..     -1.000000
    S0705...  COST....      1.000000   PP0706..      1.000000
    S0705...  PP0705..     -1.000000
    S0706...  COST....      1.000000   PP0707..      1.000000
    S0706...  PP0706..     -1.000000
    S0707...  COST....      1.000000   PP0708..      1.000000
    S0707...  PP0707..     -1.000000
    S0801...  COST....      1.000000   PP0802..      1.000000
    S0801...  PP0801..     -1.000000
    S0802...  COST....      1.000000   PP0803..      1.000000
    S0802...  PP0802..     -1.000000
    S0803...  COST....      1.000000   PP0804..      1.000000
    S0803...  PP0803..     -1.000000
    S0804...  COST....      1.000000   PP0805..      1.000000
    S0804...  PP0804..     -1.000000
    S0805...  COST....      1.000000   PP0806..      1.000000
    S0805...  PP0805..     -1.000000
    S0806...  COST....      1.000000   PP0807..      1.000000
    S0806...  PP0806..     -1.000000
    S0807...  COST....      1.000000   PP0808..      1.000000
    S0807...  PP0807..     -1.000000
    R0101...  COST....      2.000000   PP0102..     -1.000000
    R0101...  PP0101..      1.000000
    R0102...  COST....      2.000000   PP0103..     -1.000000
    R0102...  PP0102..      1.000000
    R0103...  COST....      2.000000   PP0104..     -1.000000
    R0103...  PP0103..      1.000000
    R0104...  COST....      2.000000   PP0105..     -1.000000
    R0104...  PP0104..      1.000000
    R0105...  COST....      2.000000   PP0106..     -1.000000
    R0105...  PP0105..      1.000000
    R0106...  COST....      2.000000   PP0107..     -1.000000
    R0106...  PP0106..      1.000000
    R0107...  COST....      2.000000   PP0108..     -1.000000
    R0107...  PP0107..      1.000000
    R0201...  COST....      2.000000   PP0202..     -1.000000
    R0201...  PP0201..      1.000000
    R0202...  COST....      2.000000   PP0203..     -1.000000
    R0202...  PP0202..      1.000000
    R0203...  COST....      2.000000   PP0204..     -1.000000
    R0203...  PP0203..      1.000000
    R0204...  COST....      2.000000   PP0205..     -1.000000
    R0204...  PP0204..      1.000000
    R0205...  COST....      2.000000   PP0206..     -1.000000
    R0205...  PP0205..      1.000000
    R0206...  COST....      2.000000   PP0207..     -1.000000
    R0206...  PP0206..      1.000000
    R0207...  COST....      2.000000   PP0208..     -1.000000
    R0207...  PP0207..      1.000000
    R0301...  COST....      2.000000   PP0302..     -1.000000
    R0301...  PP0301..      1.000000
    R0302...  COST....      2.000000   PP0303..     -1.000000
    R0302...  PP0302..      1.000000
    R0303...  COST....      2.000000   PP0304..     -1.000000
    R0303...  PP0303..      1.000000
    R0304...  COST....      2.000000   PP0305..     -1.000000
    R0304...  PP0304..      1.000000
    R0305...  COST....      2.000000   PP0306..     -1.000000
    R0305...  PP0305..      1.000000
    R0306...  COST....      2.000000   PP0307..     -1.000000
    R0306...  PP0306..      1.000000
    R0307...  COST....      2.000000   PP0308..     -1.000000
    R0307...  PP0307..      1.000000
    R0401...  COST....      2.000000   PP0402..     -1.000000
    R0401...  PP0401..      1.000000
    R0402...  COST....      2.000000   PP0403..     -1.000000
    R0402...  PP0402..      1.000000
    R0403...  COST....      2.000000   PP0404..     -1.000000
    R0403...  PP0403..      1.000000
    R0404...  COST....      2.000000   PP0405..     -1.000000
    R0404...  PP0404..      1.000000
    R0405...  COST....      2.000000   PP0406..     -1.000000
    R0405...  PP0405..      1.000000
    R0406...  COST....      2.000000   PP0407..     -1.000000
    R0406...  PP0406..      1.000000
    R0407...  COST....      2.000000   PP0408..     -1.000000
    R0407...  PP0407..      1.000000
    R0501...  COST....      2.000000   PP0502..     -1.000000
    R0501...  PP0501..      1.000000
    R0502...  COST....      2.000000   PP0503..     -1.000000
    R0502...  PP0502..      1.000000
    R0503...  COST....      2.000000   PP0504..     -1.000000
    R0503...  PP0503..      1.000000
    R0504...  COST....      2.000000   PP0505..     -1.000000
    R0504...  PP0504..      1.000000
    R0505...  COST....      2.000000   PP0506..     -1.000000
    R0505...  PP0505..      1.000000
    R0506...  COST....      2.000000   PP0507..     -1.000000
    R0506...  PP0506..      1.000000
    R0507...  COST....      2.000000   PP0508..     -1.000000
    R0507...  PP0507..      1.000000
    R0601...  COST....      2.000000   PP0602..     -1.000000
    R0601...  PP0601..      1.000000
    R0602...  COST....      2.000000   PP0603..     -1.000000
    R0602...  PP0602..      1.000000
    R0603...  COST....      2.000000   PP0604..     -1.000000
    R0603...  PP0603..      1.000000
    R0604...  COST....      2.000000   PP0605..     -1.000000
    R0604...  PP0604..      1.000000
    R0605...  COST....      2.000000   PP0606..     -1.000000
    R0605...  PP0605..      1.000000
    R0606...  COST....      2.000000   PP0607..     -1.000000
    R0606...  PP0606..      1.000000
    R0607...  COST....      2.000000   PP0608..     -1.000000
    R0607...  PP0607..      1.000000
    R0701...  COST....      2.000000   PP0702..     -1.000000
    R0701...  PP0701..      1.000000
    R0702...  COST....      2.000000   PP0703..     -1.000000
    R0702...  PP0702..      1.000000
    R0703...  COST....      2.000000   PP0704..     -1.000000
    R0703...  PP0703..      1.000000
    R0704...  COST....      2.000000   PP0705..     -1.000000
    R0704...  PP0704..      1.000000
    R0705...  COST....      2.000000   PP0706..     -1.000000
    R0705...  PP0705..      1.000000
    R0706...  COST....      2.000000   PP0707..     -1.000000
    R0706...  PP0706..      1.000000
    R0707...  COST....      2.000000   PP0708..     -1.000000
    R0707...  PP0707..      1.000000
    R0801...  COST....      2.000000   PP0802..     -1.000000
    R0801...  PP0801..      1.000000
    R0802...  COST....      2.000000   PP0803..     -1.000000
    R0802...  PP0802..      1.000000
    R0803...  COST....      2.000000   PP0804..     -1.000000
    R0803...  PP0803..      1.000000
    R0804...  COST....      2.000000   PP0805..     -1.000000
    R0804...  PP0804..      1.000000
    R0805...  COST....      2.000000   PP0806..     -1.000000
    R0805...  PP0805..      1.000000
    R0806...  COST....      2.000000   PP0807..     -1.000000
    R0806...  PP0806..      1.000000
    R0807...  COST....      2.000000   PP0808..     -1.000000
    R0807...  PP0807..      1.000000
    X0101...  PP0101..      1.000000   CAP01...      1.000000
    X0101...  VUBR0101      1.000000
    X0102...  PP0102..      1.000000   CAP02...      1.000000
    X0102...  VUBR0102      1.000000
    X0103...  PP0103..      1.000000   CAP03...      1.000000
    X0103...  VUBR0103      1.000000
    X0104...  PP0104..      1.000000   CAP04...      1.000000
    X0104...  VUBR0104      1.000000
    X0105...  PP0105..      1.000000   CAP05...      1.000000
    X0105...  VUBR0105      1.000000
    X0106...  PP0106..      1.000000   CAP06...      1.000000
    X0106...  VUBR0106      1.000000
    X0107...  PP0107..      1.000000   CAP07...      1.000000
    X0107...  VUBR0107      1.000000
    X0108...  PP0108..      1.000000   CAP08...      1.000000
    X0108...  VUBR0108      1.000000
    X0201...  PP0201..      1.000000   CAP01...      1.000000
    X0201...  VUBR0201      1.000000
    X0202...  PP0202..      1.000000   CAP02...      1.000000
    X0202...  VUBR0202      1.000000
    X0203...  PP0203..      1.000000   CAP03...      1.000000
    X0203...  VUBR0203      1.000000
    X0204...  PP0204..      1.000000   CAP04...      1.000000
    X0204...  VUBR0204      1.000000
    X0205...  PP0205..      1.000000   CAP05...      1.000000
    X0205...  VUBR0205      1.000000
    X0206...  PP0206..      1.000000   CAP06...      1.000000
    X0206...  VUBR0206      1.000000
    X0207...  PP0207..      1.000000   CAP07...      1.000000
    X0207...  VUBR0207      1.000000
    X0208...  PP0208..      1.000000   CAP08...      1.000000
    X0208...  VUBR0208      1.000000
    X0301...  PP0301..      1.000000   CAP01...      1.000000
    X0301...  VUBR0301      1.000000
    X0302...  PP0302..      1.000000   CAP02...      1.000000
    X0302...  VUBR0302      1.000000
    X0303...  PP0303..      1.000000   CAP03...      1.000000
    X0303...  VUBR0303      1.000000
    X0304...  PP0304..      1.000000   CAP04...      1.000000
    X0304...  VUBR0304      1.000000
    X0305...  PP0305..      1.000000   CAP05...      1.000000
    X0305...  VUBR0305      1.000000
    X0306...  PP0306..      1.000000   CAP06...      1.000000
    X0306...  VUBR0306      1.000000
    X0307...  PP0307..      1.000000   CAP07...      1.000000
    X0307...  VUBR0307      1.000000
    X0308...  PP0308..      1.000000   CAP08...      1.000000
    X0308...  VUBR0308      1.000000
    X0401...  PP0401..      1.000000   CAP01...      1.000000
    X0401...  VUBR0401      1.000000
    X0402...  PP0402..      1.000000   CAP02...      1.000000
    X0402...  VUBR0402      1.000000
    X0403...  PP0403..      1.000000   CAP03...      1.000000
    X0403...  VUBR0403      1.000000
    X0404...  PP0404..      1.000000   CAP04...      1.000000
    X0404...  VUBR0404      1.000000
    X0405...  PP0405..      1.000000   CAP05...      1.000000
    X0405...  VUBR0405      1.000000
    X0406...  PP0406..      1.000000   CAP06...      1.000000
    X0406...  VUBR0406      1.000000
    X0407...  PP0407..      1.000000   CAP07...      1.000000
    X0407...  VUBR0407      1.000000
    X0408...  PP0408..      1.000000   CAP08...      1.000000
    X0408...  VUBR0408      1.000000
    X0501...  PP0501..      1.000000   CAP01...      1.000000
    X0501...  VUBR0501      1.000000
    X0502...  PP0502..      1.000000   CAP02...      1.000000
    X0502...  VUBR0502      1.000000
    X0503...  PP0503..      1.000000   CAP03...      1.000000
    X0503...  VUBR0503      1.000000
    X0504...  PP0504..      1.000000   CAP04...      1.000000
    X0504...  VUBR0504      1.000000
    X0505...  PP0505..      1.000000   CAP05...      1.000000
    X0505...  VUBR0505      1.000000
    X0506...  PP0506..      1.000000   CAP06...      1.000000
    X0506...  VUBR0506      1.000000
    X0507...  PP0507..      1.000000   CAP07...      1.000000
    X0507...  VUBR0507      1.000000
    X0508...  PP0508..      1.000000   CAP08...      1.000000
    X0508...  VUBR0508      1.000000
    X0601...  PP0601..      1.000000   CAP01...      1.000000
    X0601...  VUBR0601      1.000000
    X0602...  PP0602..      1.000000   CAP02...      1.000000
    X0602...  VUBR0602      1.000000
    X0603...  PP0603..      1.000000   CAP03...      1.000000
    X0603...  VUBR0603      1.000000
    X0604...  PP0604..      1.000000   CAP04...      1.000000
    X0604...  VUBR0604      1.000000
    X0605...  PP0605..      1.000000   CAP05...      1.000000
    X0605...  VUBR0605      1.000000
    X0606...  PP0606..      1.000000   CAP06...      1.000000
    X0606...  VUBR0606      1.000000
    X0607...  PP0607..      1.000000   CAP07...      1.000000
    X0607...  VUBR0607      1.000000
    X0608...  PP0608..      1.000000   CAP08...      1.000000
    X0608...  VUBR0608      1.000000
    X0701...  PP0701..      1.000000   CAP01...      1.000000
    X0701...  VUBR0701      1.000000
    X0702...  PP0702..      1.000000   CAP02...      1.000000
    X0702...  VUBR0702      1.000000
    X0703...  PP0703..      1.000000   CAP03...      1.000000
    X0703...  VUBR0703      1.000000
    X0704...  PP0704..      1.000000   CAP04...      1.000000
    X0704...  VUBR0704      1.000000
    X0705...  PP0705..      1.000000   CAP05...      1.000000
    X0705...  VUBR0705      1.000000
    X0706...  PP0706..      1.000000   CAP06...      1.000000
    X0706...  VUBR0706      1.000000
    X0707...  PP0707..      1.000000   CAP07...      1.000000
    X0707...  VUBR0707      1.000000
    X0708...  PP0708..      1.000000   CAP08...      1.000000
    X0708...  VUBR0708      1.000000
    X0801...  PP0801..      1.000000   CAP01...      1.000000
    X0801...  VUBR0801      1.000000
    X0802...  PP0802..      1.000000   CAP02...      1.000000
    X0802...  VUBR0802      1.000000
    X0803...  PP0803..      1.000000   CAP03...      1.000000
    X0803...  VUBR0803      1.000000
    X0804...  PP0804..      1.000000   CAP04...      1.000000
    X0804...  VUBR0804      1.000000
    X0805...  PP0805..      1.000000   CAP05...      1.000000
    X0805...  VUBR0805      1.000000
    X0806...  PP0806..      1.000000   CAP06...      1.000000
    X0806...  VUBR0806      1.000000
    X0807...  PP0807..      1.000000   CAP07...      1.000000
    X0807...  VUBR0807      1.000000
    X0808...  PP0808..      1.000000   CAP08...      1.000000
    X0808...  VUBR0808      1.000000
    Y0101...  COST....    100.000000   VUBR0101   -350.000000
    Y0102...  COST....    100.000000   VUBR0102   -350.000000
    Y0103...  COST....    100.000000   VUBR0103   -350.000000
    Y0104...  COST....    100.000000   VUBR0104   -400.000000
    Y0105...  COST....    100.000000   VUBR0105   -400.000000
    Y0106...  COST....    100.000000   VUBR0106   -400.000000
    Y0107...  COST....    100.000000   VUBR0107   -400.000000
    Y0108...  COST....    100.000000   VUBR0108   -420.000000
    Y0201...  COST....    200.000000   VUBR0201   -240.000000
    Y0202...  COST....    200.000000   VUBR0202   -240.000000
    Y0203...  COST....    200.000000   VUBR0203   -240.000000
    Y0204...  COST....    200.000000   VUBR0204   -240.000000
    Y0205...  COST....    200.000000   VUBR0205   -240.000000
    Y0206...  COST....    200.000000   VUBR0206   -240.000000
    Y0207...  COST....    200.000000   VUBR0207   -240.000000
    Y0208...  COST....    200.000000   VUBR0208   -240.000000
    Y0301...  COST....    200.000000   VUBR0301   -350.000000
    Y0302...  COST....    200.000000   VUBR0302   -350.000000
    Y0303...  COST....    200.000000   VUBR0303   -350.000000
    Y0304...  COST....    200.000000   VUBR0304   -400.000000
    Y0305...  COST....    200.000000   VUBR0305   -400.000000
    Y0306...  COST....    200.000000   VUBR0306   -400.000000
    Y0307...  COST....    200.000000   VUBR0307   -400.000000
    Y0308...  COST....    200.000000   VUBR0308   -500.000000
    Y0401...  COST....    300.000000   VUBR0401   -350.000000
    Y0402...  COST....    300.000000   VUBR0402   -350.000000
    Y0403...  COST....    300.000000   VUBR0403   -350.000000
    Y0404...  COST....    300.000000   VUBR0404   -400.000000
    Y0405...  COST....    300.000000   VUBR0405   -400.000000
    Y0406...  COST....    300.000000   VUBR0406   -400.000000
    Y0407...  COST....    300.000000   VUBR0407   -400.000000
    Y0408...  COST....    300.000000   VUBR0408   -500.000000
    Y0501...  COST....    400.000000   VUBR0501   -160.000000
    Y0502...  COST....    400.000000   VUBR0502   -160.000000
    Y0503...  COST....    400.000000   VUBR0503   -160.000000
    Y0504...  COST....    400.000000   VUBR0504   -160.000000
    Y0505...  COST....    400.000000   VUBR0505   -160.000000
    Y0506...  COST....    400.000000   VUBR0506   -160.000000
    Y0507...  COST....    400.000000   VUBR0507   -160.000000
    Y0508...  COST....    400.000000   VUBR0508   -160.000000
    Y0601...  COST....    250.000000   VUBR0601   -350.000000
    Y0602...  COST....    250.000000   VUBR0602   -350.000000
    Y0603...  COST....    250.000000   VUBR0603   -350.000000
    Y0604...  COST....    250.000000   VUBR0604   -400.000000
    Y0605...  COST....    250.000000   VUBR0605   -400.000000
    Y0606...  COST....    250.000000   VUBR0606   -400.000000
    Y0607...  COST....    250.000000   VUBR0607   -400.000000
    Y0608...  COST....    250.000000   VUBR0608   -400.000000
    Y0701...  COST....    500.000000   VUBR0701   -240.000000
    Y0702...  COST....    500.000000   VUBR0702   -240.000000
    Y0703...  COST....    500.000000   VUBR0703   -240.000000
    Y0704...  COST....    500.000000   VUBR0704   -240.000000
    Y0705...  COST....    500.000000   VUBR0705   -240.000000
    Y0706...  COST....    500.000000   VUBR0706   -240.000000
    Y0707...  COST....    500.000000   VUBR0707   -240.000000
    Y0708...  COST....    500.000000   VUBR0708   -240.000000
    Y0801...  COST....    300.000000   VUBR0801   -100.000000
    Y0802...  COST....    300.000000   VUBR0802   -100.000000
    Y0803...  COST....    300.000000   VUBR0803   -100.000000
    Y0804...  COST....    300.000000   VUBR0804   -100.000000
    Y0805...  COST....    300.000000   VUBR0805   -100.000000
    Y0806...  COST....    300.000000   VUBR0806   -100.000000
    Y0807...  COST....    300.000000   VUBR0807   -100.000000
    Y0808...  COST....    300.000000   VUBR0808   -100.000000
RHS
    RHSSET01  PP0102..     70.000000   PP0103..     50.000000
    RHSSET01  PP0104..    100.000000   PP0105..     20.000000
    RHSSET01  PP0106..     80.000000   PP0108..    100.000000
    RHSSET01  PP0201..     20.000000   PP0202..     40.000000
    RHSSET01  PP0203..     50.000000   PP0204..     10.000000
    RHSSET01  PP0205..     30.000000   PP0207..     40.000000
    RHSSET01  PP0208..     50.000000   PP0301..     40.000000
    RHSSET01  PP0302..     50.000000   PP0304..    100.000000
    RHSSET01  PP0305..     40.000000   PP0306..     80.000000
    RHSSET01  PP0307..     90.000000   PP0308..    160.000000
    RHSSET01  PP0402..    100.000000   PP0403..    100.000000
    RHSSET01  PP0404..    150.000000   PP0405..    160.000000
    RHSSET01  PP0406..     90.000000   PP0407..    100.000000
    RHSSET01  PP0408..    100.000000   PP0501..     50.000000
    RHSSET01  PP0503..     20.000000   PP0504..     40.000000
    RHSSET01  PP0505..     10.000000   PP0506..     10.000000
    RHSSET01  PP0507..     20.000000   PP0508..     10.000000
    RHSSET01  PP0601..     70.000000   PP0602..     40.000000
    RHSSET01  PP0603..     40.000000   PP0604..     40.000000
    RHSSET01  PP0605..    100.000000   PP0606..     20.000000
    RHSSET01  PP0607..     40.000000   PP0608..     50.000000
    RHSSET01  PP0702..     20.000000   PP0703..     50.000000
    RHSSET01  PP0704..     10.000000   PP0705..     20.000000
    RHSSET01  PP0706..     60.000000   PP0707..     40.000000
    RHSSET01  PP0708..     40.000000   PP0801..     10.000000
    RHSSET01  PP0802..     20.000000   PP0805..     10.000000
    RHSSET01  PP0806..     10.000000   PP0807..     20.000000
    RHSSET01  PP0808..     30.000000   CAP01...    350.000000
    RHSSET01  CAP02...    350.000000   CAP03...    350.000000
    RHSSET01  CAP04...    400.000000   CAP05...    400.000000
    RHSSET01  CAP06...    400.000000   CAP07...    400.000000
    RHSSET01  CAP08...    500.000000
BOUNDS
 BV BOUND01   Y0101...
 BV BOUND01   Y0102...
 BV BOUND01   Y0103...
 BV BOUND01   Y0104...
 BV BOUND01   Y0105...
 BV BOUND01   Y0106...
 BV BOUND01   Y0107...
 BV BOUND01   Y0108...
 BV BOUND01   Y0201...
 BV BOUND01   Y0202...
 BV BOUND01   Y0203...
 BV BOUND01   Y0204...
 BV BOUND01   Y0205...
 BV BOUND01   Y0206...
 BV BOUND01   Y0207...
 BV BOUND01   Y0208...
 BV BOUND01   Y0301...
 BV BOUND01   Y0302...
 BV BOUND01   Y0303...
 BV BOUND01   Y0304...
 BV BOUND01   Y0305...
 BV BOUND01   Y0306...
 BV BOUND01   Y0307...
 BV BOUND01   Y0308...
 BV BOUND01   Y0401...
 BV BOUND01   Y0402...
 BV BOUND01   Y0403...
 BV BOUND01   Y0404...
 BV BOUND01   Y0405...
 BV BOUND01   Y0406...
 BV BOUND01   Y0407...
 BV BOUND01   Y0408...
 BV BOUND01   Y0501...
 BV BOUND01   Y0502...
 BV BOUND01   Y0503...
 BV BOUND01   Y0504...
 BV BOUND01   Y0505...
 BV BOUND01   Y0506...
 BV BOUND01   Y0507...
 BV BOUND01   Y0508...
 BV BOUND01   Y0601...
 BV BOUND01   Y0602...
 BV BOUND01   Y0603...
 BV BOUND01   Y0604...
 BV BOUND01   Y0605...
 BV BOUND01   Y0606...
 BV BOUND01   Y0607...
 BV BOUND01   Y0608...
 BV BOUND01   Y0701...
 BV BOUND01   Y0702...
 BV BOUND01   Y0703...
 BV BOUND01   Y0704...
 BV BOUND01   Y0705...
 BV BOUND01   Y0706...
 BV BOUND01   Y0707...
 BV BOUND01   Y0708...
 BV BOUND01   Y0801...
 BV BOUND01   Y0802...
 BV BOUND01   Y0803...
 BV BOUND01   Y0804...
 BV BOUND01   Y0805...
 BV BOUND01   Y0806...
 BV BOUND01   Y0807...
 BV BOUND01   Y0808...
ENDATA

